16 200
13 70
15 144
18 151
71 1
42 71
16 121
16 27
34 84
86 32
83 72
9 1
24 80
76 41
17 50
37 44
98 26
11 97
8 156
5 150
72 68
73 35
26 167
32 7
90 1
31 53
5 156
71 5
7 71
92 50
59 18
35 9
71 7
10 69
31 25
51 22
69 70
60 30
48 76
16 31
37 74
16 118
44 86
88 7
53 19
12 94
6 173
1 160
37 30
19 172
40 55
25 151
48 57
13 61
40 13
26 79
32 56
89 24
96 15
21 175
44 123
15 147
60 46
11 110
51 56
2 87
34 86
38 36
12 78
5 181
57 1
27 70
93 12
83 6
6 49
12 176
8 14
32 128
4 135
51 43
30 94
28 63
36 25
36 84
11 146
5 59
14 92
82 62
34 137
18 4
91 58
42 25
24 105
26 107
27 69
22 48
24 142
11 137
10 138
28 27
